Gurobi Optimizer version 9.1.2 build v9.1.2rc0 (linux64)
Thread count: 36 physical cores, 72 logical processors, using up to 32 threads
Optimize a model with 12 rows, 57 columns and 590 nonzeros
Model fingerprint: 0xf32eec78
Model has 47 quadratic constraints
Coefficient statistics:
  Matrix range     [2e-05, 3e+00]
  QMatrix range    [1e+00, 1e+00]
  QLMatrix range   [1e+00, 1e+00]
  Objective range  [8e-03, 7e-01]
  Bounds range     [1e+00, 1e+00]
  RHS range        [1e+00, 1e+00]
Presolve removed 9 rows and 0 columns

Continuous model is non-convex -- solving as a MIP.

Presolve removed 9 rows and 0 columns
Presolve time: 0.00s
Presolved: 189 rows, 57 columns, 443 nonzeros
Presolved model has 47 bilinear constraint(s)
Variable types: 57 continuous, 0 integer (0 binary)

Root relaxation: objective -1.743721e+00, 44 iterations, 0.00 seconds

    Nodes    |    Current Node    |     Objective Bounds      |     Work
 Expl Unexpl |  Obj  Depth IntInf | Incumbent    BestBd   Gap | It/Node Time

     0     0   -1.74372    0   38          -   -1.74372      -     -    0s
H    0     0                       0.6147548   -1.74372   384%     -    0s
     0     0   -1.64739    0    1    0.61475   -1.64739   368%     -    0s
H    0     0                      -1.6450460   -1.64739  0.14%     -    0s
     0     0     cutoff    0        -1.64505   -1.64505  0.00%     -    0s

Cutting planes:
  RLT: 25
  BQP: 3

Explored 1 nodes (76 simplex iterations) in 0.01 seconds
Thread count was 32 (of 72 available processors)

Solution count 2: -1.64505 0.614755 
No other solutions better than -1.64505

Optimal solution found (tolerance 1.00e-04)
Best objective -1.645045978473e+00, best bound -1.645045978473e+00, gap 0.0000%

User-callback calls 78, time in user-callback 0.00 sec
Gurobi Optimizer version 9.1.2 build v9.1.2rc0 (linux64)
Thread count: 36 physical cores, 72 logical processors, using up to 32 threads
Optimize a model with 60 rows, 312 columns and 16100 nonzeros
Model fingerprint: 0xebddee4d
Model has 262 quadratic constraints
Coefficient statistics:
  Matrix range     [4e-07, 7e+00]
  QMatrix range    [1e+00, 1e+00]
  QLMatrix range   [1e+00, 1e+00]
  Objective range  [5e-03, 1e+00]
  Bounds range     [1e+00, 1e+00]
  RHS range        [1e+00, 1e+00]
Presolve removed 16 rows and 0 columns

Continuous model is non-convex -- solving as a MIP.

Presolve removed 16 rows and 0 columns
Presolve time: 0.01s
Presolved: 1080 rows, 312 columns, 13135 nonzeros
Presolved model has 262 bilinear constraint(s)
Variable types: 312 continuous, 0 integer (0 binary)

Root relaxation: objective -2.936122e+01, 317 iterations, 0.02 seconds

    Nodes    |    Current Node    |     Objective Bounds      |     Work
 Expl Unexpl |  Obj  Depth IntInf | Incumbent    BestBd   Gap | It/Node Time

     0     0  -29.36122    0   89          -  -29.36122      -     -    0s
     0     0  -28.07255    0   72          -  -28.07255      -     -    0s
     0     0  -28.01629    0   72          -  -28.01629      -     -    0s
     0     0  -27.99932    0   64          -  -27.99932      -     -    0s
     0     0  -27.98336    0   68          -  -27.98336      -     -    0s
     0     0  -27.96596    0   81          -  -27.96596      -     -    0s
     0     0  -27.96443    0   76          -  -27.96443      -     -    0s
     0     0  -27.95470    0   64          -  -27.95470      -     -    0s
     0     0  -27.95394    0   73          -  -27.95394      -     -    0s
     0     0  -27.95343    0   73          -  -27.95343      -     -    0s
     0     0  -27.95301    0   73          -  -27.95301      -     -    0s
H    0     0                     -25.3775792  -27.95301  10.1%     -    0s
     0     2  -27.95301    0   73  -25.37758  -27.95301  10.1%     -    0s
* 1802  1715              51     -25.3778300  -27.25578  7.40%  43.2    1s
* 2163  1983              71     -25.3904314  -27.25578  7.35%  39.0    1s
* 2164  1983              71     -25.3904321  -27.25578  7.35%  39.0    1s
* 2276  1974              74     -25.4187444  -27.25578  7.23%  38.1    1s
* 2277  1974              74     -25.4187448  -27.25578  7.23%  38.0    1s
* 2554  1949              61     -26.5203639  -27.25578  2.77%  36.5    2s
* 4267   889              56     -26.5241963  -27.11168  2.21%  40.3    3s
* 4268   850              56     -26.5242307  -27.11168  2.21%  40.3    3s
* 4271   812              56     -26.5242543  -27.11168  2.21%  40.3    3s
* 4597   843              63     -26.5317576  -27.11168  2.19%  40.9    3s
* 4700   819              69     -26.5319089  -27.11168  2.19%  40.9    3s
* 4945   870              67     -26.6149162  -27.11168  1.87%  41.2    3s
* 5083   852              68     -26.6149194  -27.11168  1.87%  41.1    3s
* 7850  1486              77     -26.6290952  -27.11168  1.81%  41.2    4s
* 7851  1486              77     -26.6290982  -27.11168  1.81%  41.2    4s
* 8045  1535              77     -26.6293192  -27.09112  1.73%  41.0    4s
* 8047  1535              78     -26.6293418  -27.09112  1.73%  41.0    4s
* 8050  1535              77     -26.6293443  -27.09112  1.73%  41.0    4s
* 8052  1535              78     -26.6293618  -27.09112  1.73%  41.0    4s
* 8194  1535              79     -26.6434493  -27.09112  1.68%  40.6    4s
* 8195  1535              79     -26.6434503  -27.09112  1.68%  40.6    4s
  9927  1687     cutoff   27       -26.64345  -26.93117  1.08%  40.5    5s
*14682  1634              67     -26.6436875  -26.72386  0.30%  37.8    5s
*14684  1634              68     -26.6436954  -26.72386  0.30%  37.8    5s
*15351  1647              65     -26.6447308  -26.72249  0.29%  37.5    6s
*15352  1647              65     -26.6447313  -26.72249  0.29%  37.5    6s
*16590  1556              61     -26.6447696  -26.69821  0.20%  36.7    6s
*16591  1556              60     -26.6448246  -26.69821  0.20%  36.7    6s
*17804  1436              58     -26.6449001  -26.68209  0.14%  36.1    6s
*17951  1436              63     -26.6449420  -26.68209  0.14%  36.0    6s
*17952  1436              63     -26.6449423  -26.68209  0.14%  36.0    6s
*19357  1322              59     -26.6449839  -26.67926  0.13%  34.9    6s
*19358  1322              59     -26.6449851  -26.67926  0.13%  34.9    6s
*20522  1295              67     -26.6451488  -26.67926  0.13%  33.9    6s
*20523  1295              67     -26.6451635  -26.67926  0.13%  33.9    6s
*20529  1295              67     -26.6451894  -26.67926  0.13%  33.9    6s
*20530  1295              67     -26.6451912  -26.67926  0.13%  33.9    6s
*20631  1195              64     -26.6452245  -26.66061  0.06%  33.8    7s
*21173  1195              64     -26.6452248  -26.65634  0.04%  33.3    7s
*21233  1195              62     -26.6452313  -26.65634  0.04%  33.2    7s
*22169  1063              69     -26.6452403  -26.65028  0.02%  32.4    7s
*22170  1063              69     -26.6452416  -26.65028  0.02%  32.4    7s
*22611   977              70     -26.6452498  -26.64844  0.01%  31.9    7s
*22612   977              70     -26.6452501  -26.64844  0.01%  31.9    7s
*22953   977              65     -26.6452839  -26.64740  0.01%  31.6    7s

Explored 23673 nodes (731687 simplex iterations) in 7.31 seconds
Thread count was 32 (of 72 available processors)

Solution count 10: -26.6453 -26.6453 -26.6452 ... -26.6452

Optimal solution found (tolerance 1.00e-04)
Best objective -2.664528385933e+01, best bound -2.664716747989e+01, gap 0.0071%

User-callback calls 48253, time in user-callback 0.01 sec



objective value: -26.6452838593303
objective bound: -26.647167479886757
x_opt: [1.0, 0.8581742828812405, 0.0, 0.26228553512868474, 0.0, 0.0, 1.0, 0.0, 0.0, 0.0, 1.0, 0.0, 1.0, 1.0, 0.36291447648142083, 1.0, 0.0, 1.0, 0.0, 0.0, 0.0, 0.3488375210018029, 0.0, 0.5531969936383816, 0.0, 0.7298556409265538, 0.0, 1.0, 0.0, 0.0, 1.0, 1.0, 0.0, 0.5624133418138461, 1.0, 0.9006048273397221, 0.0, 1.0, 0.0, 1.0, 1.0, 0.0, 1.0, 0.08516348015411986, 0.04356581034770724, 0.0, 0.46950920663655077, 0.38910769717150134, 0.30081421274249664, 0.0]
GUROBI solution time: 7.313929080963135




